*Heading
** Job name: UAV_SLICE_ANGLE_CORRECTION Model name: Model-1
** Generated by: Abaqus/CAE 2024.HF3
*Preprint, echo=NO, model=NO, history=NO, contact=NO
**
** PARTS
**
*Part, name=Drone_Slice
*Node
      1,         660.,           0.,           0.
      2,        1000.,           0.,           0.
      3,           0.,           0.,           0.
      4,    561.45166,  -237.916748,           0.
      5,    561.45166,   237.916748,           0.
      6,         830.,           0.,           0.
      7,         330.,           0.,           0.
      8,    610.72583,  -118.958374,           0.
      9,    610.72583,   118.958374,           0.
*Element, type=B32
1, 1, 6, 2
2, 3, 7, 1
3, 1, 8, 4
4, 5, 9, 1
*Nset, nset=Arm
 1, 2, 3, 6, 7
*Elset, elset=Arm
 1, 2
*Nset, nset=Set-3
 1, 4, 5, 8, 9
*Elset, elset=Set-3
 3, 4
*Nset, nset=Bottom_strut
 1, 4, 8
*Elset, elset=Bottom_strut
 3,
*Nset, nset=Top_Strut, generate
 1,  9,  4
*Elset, elset=Top_Strut
 4,
** Section: Arm  Profile: Arm
*Beam Section, elset=Arm, material=Aluminum7075, temperature=GRADIENTS, section=THICK PIPE
14.5, 2.
0.,0.,-1.
** Region: (Strut:Set-3), (Beam Orientation:Bottom_strut)
*Elset, elset=_I2, internal
 3,
** Section: Strut  Profile: Strut
*Beam Section, elset=_I2, material=Aluminum7075, temperature=GRADIENTS, section=THICK PIPE
7., 1.
0.,0.,-1.
** Region: (Strut:Set-3), (Beam Orientation:Top_Strut)
*Elset, elset=_I3, internal
 4,
** Section: Strut  Profile: Strut
*Beam Section, elset=_I3, material=Aluminum7075, temperature=GRADIENTS, section=THICK PIPE
7., 1.
0.,0.,1.
*End Part
**  
**
** ASSEMBLY
**
*Assembly, name=Assembly
**  
*Instance, name=Drone_Slice-1, part=Drone_Slice
*End Instance
**  
*Nset, nset=Origin, instance=Drone_Slice-1
 3,
*Nset, nset=Set-2, instance=Drone_Slice-1
 2,
*Nset, nset=Set-3, instance=Drone_Slice-1
 4,
*Nset, nset=Set-4, instance=Drone_Slice-1
 4,
*Nset, nset=Set-5, instance=Drone_Slice-1
 5,
*Nset, nset=Set-6, instance=Drone_Slice-1
 4,
*Nset, nset="_T-Datum csys-3", internal
Set-5, 
*Transform, nset="_T-Datum csys-3"
0.38268343236509, -0.923879532511287,           0., 0.923879532511287, 0.38268343236509,           0.
*Nset, nset="_T-Datum csys-2", internal
Set-6, 
*Transform, nset="_T-Datum csys-2"
0.38268343236509, 0.923879532511287,           0., -0.923879532511287, 0.38268343236509,           0.
*End Assembly
** 
** MATERIALS
** 
*Material, name=Aluminum7075
*Elastic
71700., 0.33
** ----------------------------------------------------------------
** 
** STEP: Force Apllied 100N
** 
*Step, name="Force Apllied 100N", nlgeom=NO, perturbation
*Static
** 
** BOUNDARY CONDITIONS
** 
** Name: BC-1 Type: Symmetry/Antisymmetry/Encastre
*Boundary
Origin, ENCASTRE
** Name: Bottom_Symm Type: Symmetry/Antisymmetry/Encastre
*Boundary
Set-5, XSYMM
** Name: Top_Symm Type: Symmetry/Antisymmetry/Encastre
*Boundary
Set-6, XSYMM
** 
** LOADS
** 
** Name: N100 Force   Type: Concentrated force
*Cload
Set-2, 3, -100.
** 
** OUTPUT REQUESTS
** 
** 
** FIELD OUTPUT: F-Output-1
** 
*Output, field
*Node Output
CF, RF, U, UR
*Element Output, directions=YES
E, EE, ELEDEN, LE, MISES, S
** 
** HISTORY OUTPUT: H-Output-1
** 
*Output, history, variable=PRESELECT
*End Step
